NAME: instance_11
TYPE: TSP
COMMENT: 11-city problem
DIMENSION: 11
EDGE_WEIGHT_TYPE: EUC_2D
NODE_COORD_SECTION
0 117 896
1 79 165
2 623 122
3 757 856
4 88 632
5 714 295
6 280 381
7 919 872
8 191 453
9 250 100
10 493 334
EOF
